Acetone (propan-2-one) C3H6O
1.0
       28.6355991364         0.0000000000         0.0000000000
      -14.3177995682        24.7991563047         0.0000000000
        0.0000000000         0.0000000000        45.0000000000
    C    O    H
    3    1    6
Direct
     0.803390026         0.749150038         0.903479993
     0.855530024         0.747280002         0.903479993
     0.751250029         0.695140004         0.903479993
     0.803390026         0.791610003         0.903479993
     0.857509971         0.725499988         0.883880019
     0.857470036         0.725440025         0.923030019
     0.890049994         0.788249969         0.903500021
     0.749279976         0.671419978         0.923079967
     0.749320030         0.671370029         0.883920014
     0.716780007         0.701609969         0.903450012
