BCP bathocuproine C26H20N2
1.0
       28.6355991364         0.0000000000         0.0000000000
      -14.3177995682        24.7991563047         0.0000000000
        0.0000000000         0.0000000000        45.0000000000
    C    N    H
   26    2   20
Direct
     0.331009984         0.497399986         0.119750001
     0.364480019         0.553250015         0.119929999
     0.405529976         0.578490019         0.141220003
     0.411899984         0.546159983         0.162459999
     0.378269970         0.490300000         0.162369996
     0.337830007         0.465709984         0.140970007
     0.439689994         0.638379991         0.141749993
     0.415210009         0.669550002         0.142820001
     0.446699977         0.726429999         0.144060001
     0.525460005         0.723029971         0.142949998
     0.497269988         0.665670037         0.141279995
     0.527390003         0.638300002         0.138170004
     0.582350016         0.665780008         0.138170004
     0.612480044         0.723269999         0.141310006
     0.584329963         0.752460003         0.142949998
     0.663079977         0.834619999         0.144060001
     0.694530010         0.809210002         0.142820001
     0.670099974         0.753579974         0.141749993
     0.704249978         0.727849960         0.141220003
     0.745299995         0.743690014         0.119929999
     0.778769970         0.721279979         0.119750001
     0.772000015         0.682829976         0.140970007
     0.731510043         0.666920006         0.162349999
     0.697880030         0.689139962         0.162459999
     0.419889987         0.760270000         0.145480007
     0.689900041         0.895280004         0.145480007
     0.500090003         0.752149999         0.144329995
     0.609690011         0.806949973         0.144350007
     0.299719989         0.478609979         0.102990001
     0.359359980         0.577780008         0.103260003
     0.383599997         0.466000021         0.179110005
     0.311699986         0.422190011         0.140880004
     0.371500015         0.650169969         0.143390000
     0.505779982         0.594910026         0.135260001
     0.604009986         0.644019961         0.135260001
     0.738290012         0.833559990         0.143419996
     0.750419974         0.773320019         0.103260003
     0.810100019         0.733839989         0.102969997
     0.798089981         0.665390015         0.140860006
     0.726189971         0.637300014         0.179110005
     0.450609982         0.802870035         0.146310002
     0.394079983         0.750410020         0.165189996
     0.394079983         0.753300011         0.126019999
     0.715659976         0.911199987         0.165220007
     0.659170032         0.907150030         0.146280006
     0.715739965         0.914139986         0.126039997
     0.442870021         0.565100014         0.179389998
     0.666909993         0.677119970         0.179389998
