CBH carbohydrazide CH6N4O
 1.0000000000000000
    30.0000000000000000    0.0000000000000000    0.0000000000000000
     0.0000000000000000   30.0000000000000000    0.0000000000000000
     0.0000000000000000    0.0000000000000000   30.0000000000000000
 N   C   O   N   H  
   2   1   1   2   6
Cartesian
 17.4186329556605166 14.7418774044524064 15.5386224447655916
 16.2569974053048902 15.0774449655551752 14.8286644780827217
 14.9657990149538556 14.8196387211185172 15.3848146388830536
 14.8646636382080573 14.2862959747243217 16.5227495768304848
 13.7892445588476722 15.1664126312518572 14.6510383591062414
 12.5169826633783074 14.9185927662903026 15.1858076019709003
 17.9738309090570567 14.0970874248081852 14.9318606886601906
 17.9773309521988267 15.6185971176062477 15.6452878115396867
 16.3371521990203448 15.5198109315234980 13.8848540670336114
 13.8768071052626425 15.6085081751412886 13.7077591627225726
 12.0095283864587081 14.3121107995504637 14.5025594300503720
 12.0130302116491201 15.8336230879777382 15.2159817403545699
