DME dimethyl ether C2H6O
1.0
       28.6355991364         0.0000000000         0.0000000000
      -14.3177995682        24.7991563047         0.0000000000
        0.0000000000         0.0000000000        45.0000000000
    O    C    H
    1    2    6
Direct
     0.279760003         0.112850003         0.156869993
     0.326979995         0.163870007         0.156869993
     0.232539997         0.116650000         0.156869993
     0.361299992         0.157069996         0.156849995
     0.329479992         0.187610000         0.176719993
     0.329439998         0.187629998         0.137030005
     0.230079994         0.137950003         0.137030005
     0.230039999         0.137930006         0.176719993
     0.198229998         0.075539999         0.156869993
