DMS dimethyl sulfide C2H6S
1.0
       28.6355991364         0.0000000000         0.0000000000
      -14.3177995682        24.7991563047         0.0000000000
        0.0000000000         0.0000000000        45.0000000000
    S    C    H
    1    2    6
Direct
     0.321489990         0.184890002         0.865859985
     0.265280008         0.115620002         0.865859985
     0.377700001         0.171829998         0.865859985
     0.228180006         0.117670000         0.865800023
     0.265720010         0.093840003         0.885770023
     0.265839994         0.093790002         0.846019983
     0.377260000         0.149639994         0.845950007
     0.377099991         0.149419993         0.885710001
     0.414799988         0.210979998         0.865930021
