DMSO dimethyl sulfoxide C2H6OS
1.0
       28.6355991364         0.0000000000         0.0000000000
      -14.3177995682        24.7991563047         0.0000000000
        0.0000000000         0.0000000000        45.0000000000
    S    C    O    H
    1    2    1    6
Direct
     0.276609987         0.133350000         0.176080003
     0.331609994         0.198039994         0.189840004
     0.221650004         0.143059999         0.189840004
     0.276609987         0.089170001         0.194440007
     0.330359995         0.231429994         0.178790003
     0.369360000         0.199139997         0.184479997
     0.328110009         0.200159997         0.213949993
     0.183870003         0.106430002         0.184479997
     0.222900003         0.177729994         0.178790003
     0.225160003         0.148690000         0.213949993
