MeOAc methyl acetate C3H6O2
1.0
       28.6355991364         0.0000000000         0.0000000000
      -14.3177995682        24.7991563047         0.0000000000
        0.0000000000         0.0000000000        45.0000000000
    C    O    H
    3    2    6
Direct
     0.646600008         0.784449995         0.911960006
     0.700639963         0.787159979         0.911960006
     0.552529991         0.725499988         0.911960006
     0.639510036         0.822770000         0.911960006
     0.605880022         0.732589960         0.911960006
     0.704389989         0.766650021         0.892340004
     0.704270005         0.766449988         0.931540012
     0.732730031         0.829230011         0.912029982
     0.546200037         0.743849993         0.931739986
     0.525110006         0.682009995         0.911960006
     0.546200037         0.743889987         0.892199993
