SE semicarbazide CH5N3O
 1.0000000000000000
    30.0000000000000000    0.0000000000000000    0.0000000000000000
     0.0000000000000000   30.0000000000000000    0.0000000000000000
     0.0000000000000000    0.0000000000000000   30.0000000000000000
 N   C   N   O   H  
   2   1   1   1   5
Cartesian
 13.1188725456557087 14.9537386664428720 15.2483003651980695
 14.4067184272803157 15.3348476392303468 14.8387386782442583
 15.5326417024319223 14.4875072752430221 15.0848665210182666
 16.8330780430018656 14.8794102262288312 14.6480666732137159
 15.3805903658050074 13.3913996199325211 15.6876919977352127
 13.1028218023887391 14.9925745311548049 16.2928474753642618
 12.4497679409225306 15.6837279221464740 14.9126521776786145
 14.5435144502218492 16.2287426221408531 14.3136142903725876
 17.6572984342371271 14.2633615876265107 14.8254450600252010
 16.9746962880549361 15.7846899098537641 14.1477767611498084
