TMA trimethylamine C3H9N
1.0
       28.6355991364         0.0000000000         0.0000000000
      -14.3177995682        24.7991563047         0.0000000000
        0.0000000000         0.0000000000        45.0000000000
    N    C    H
    1    3    9
Direct
     0.284399986         0.275040001         0.144979998
     0.229000002         0.254319996         0.154599994
     0.305130005         0.240349993         0.154599994
     0.319079995         0.330440015         0.154599994
     0.213799998         0.279929996         0.145889997
     0.224360004         0.252519995         0.179110005
     0.203470007         0.213479996         0.145870000
     0.279520005         0.199540004         0.145889997
     0.306860000         0.237480000         0.179110005
     0.345979989         0.255679995         0.145870000
     0.321990013         0.335070014         0.179110005
     0.303759992         0.355949998         0.145889997
     0.359890014         0.345640004         0.145870000
