TMP trimethylphosphine C3H9P
1.0
       28.6355991364         0.0000000000         0.0000000000
      -14.3177995682        24.7991563047         0.0000000000
        0.0000000000         0.0000000000        45.0000000000
    P    C    H
    1    3    9
Direct
     0.283769995         0.373149991         0.141330004
     0.341630012         0.374110013         0.161039993
     0.282799989         0.430040002         0.161039993
     0.226830006         0.315270007         0.161039993
     0.344779998         0.338979989         0.154349998
     0.337680012         0.373739988         0.185299993
     0.379249990         0.410270005         0.154609993
     0.318040013         0.468300015         0.154410005
     0.283039987         0.426389992         0.185299993
     0.246749997         0.431639999         0.154550001
     0.230540007         0.319150001         0.185299993
     0.225219995         0.277619988         0.154530004
     0.188639998         0.312310010         0.154440001
