FAPbI3 (001) 3x3 slab, Pb-I terminated, z-cut 0.17
 1.0000000000000000
    19.3624000549000002    0.0000000000000000    0.0000000000000000
     0.0000000000000000   18.8243999481000017    0.0000000000000000
     0.0000000000000000    0.0000000000000000   40.8961982726999977
 C   N   H   Pb  I  
  18  36  90  18  54
Direct
  0.1664199980000000  0.1758700010000000  0.1799300010000000
  0.4997499880000000  0.1758700010000000  0.1799300010000000
  0.8330900069999999  0.1758700010000000  0.1799300010000000
  0.1664199980000000  0.5092099910000000  0.1799300010000000
  0.4997499880000000  0.5092099910000000  0.1799300010000000
  0.8330900069999999  0.5092099910000000  0.1799300010000000
  0.1664199980000000  0.8425400260000000  0.1799300010000000
  0.4997499880000000  0.8425400260000000  0.1799300010000000
  0.8330900069999999  0.8425400260000000  0.1799300010000000
  0.1664199980000000  0.1758700010000000  0.3354099990000000
  0.4997499880000000  0.1758700010000000  0.3354099990000000
  0.8330900069999999  0.1758700010000000  0.3354099990000000
  0.1664199980000000  0.5092099910000000  0.3354099990000000
  0.4997499880000000  0.5092099910000000  0.3354099990000000
  0.8330900069999999  0.5092099910000000  0.3354099990000000
  0.1664199980000000  0.8425400260000000  0.3354099990000000
  0.4997499880000000  0.8425400260000000  0.3354099990000000
  0.8330900069999999  0.8425400260000000  0.3354099990000000
  0.2266200040000000  0.1440500020000000  0.1799300010000000
  0.1062199990000000  0.1440500020000000  0.1799300010000000
  0.5599499940000000  0.1440500020000000  0.1799300010000000
  0.4395500120000000  0.1440500020000000  0.1799300010000000
  0.8932899830000001  0.1440500020000000  0.1799300010000000
  0.7728899720000000  0.1440500020000000  0.1799300010000000
  0.2266200040000000  0.4773899910000001  0.1799300010000000
  0.1062199990000000  0.4773899910000001  0.1799300010000000
  0.5599499940000000  0.4773899910000001  0.1799300010000000
  0.4395500120000000  0.4773899910000001  0.1799300010000000
  0.8932899830000001  0.4773899910000001  0.1799300010000000
  0.7728899720000000  0.4773899910000001  0.1799300010000000
  0.2266200040000000  0.8107200260000000  0.1799300010000000
  0.1062199990000000  0.8107200260000000  0.1799300010000000
  0.5599499940000000  0.8107200260000000  0.1799300010000000
  0.4395500120000000  0.8107200260000000  0.1799300010000000
  0.8932899830000001  0.8107200260000000  0.1799300010000000
  0.7728899720000000  0.8107200260000000  0.1799300010000000
  0.2266200040000000  0.1440500020000000  0.3354099990000000
  0.1062199990000000  0.1440500020000000  0.3354099990000000
  0.5599499940000000  0.1440500020000000  0.3354099990000000
  0.4395500120000000  0.1440500020000000  0.3354099990000000
  0.8932899830000001  0.1440500020000000  0.3354099990000000
  0.7728899720000000  0.1440500020000000  0.3354099990000000
  0.2266200040000000  0.4773899910000001  0.3354099990000000
  0.1062199990000000  0.4773899910000001  0.3354099990000000
  0.5599499940000000  0.4773899910000001  0.3354099990000000
  0.4395500120000000  0.4773899910000001  0.3354099990000000
  0.8932899830000001  0.4773899910000001  0.3354099990000000
  0.7728899720000000  0.4773899910000001  0.3354099990000000
  0.2266200040000000  0.8107200260000000  0.3354099990000000
  0.1062199990000000  0.8107200260000000  0.3354099990000000
  0.5599499940000000  0.8107200260000000  0.3354099990000000
  0.4395500120000000  0.8107200260000000  0.3354099990000000
  0.8932899830000001  0.8107200260000000  0.3354099990000000
  0.7728899720000000  0.8107200260000000  0.3354099990000000
  0.1664199980000000  0.2338899970000000  0.1799300010000000
  0.2697199880000000  0.1749899980000000  0.1799300010000000
  0.2330700010000000  0.0902699980000000  0.1799300010000000
  0.0997700020000000  0.0902699980000000  0.1799300010000000
  0.0631200000000000  0.1749899980000000  0.1799300010000000
  0.4997499880000000  0.2338899970000000  0.1799300010000000
  0.6030499940000000  0.1749899980000000  0.1799300010000000
  0.5663999920000000  0.0902699980000000  0.1799300010000000
  0.4330999850000000  0.0902699980000000  0.1799300010000000
  0.3964500130000000  0.1749899980000000  0.1799300010000000
  0.8330900069999999  0.2338899970000000  0.1799300010000000
  0.9363899830000000  0.1749899980000000  0.1799300010000000
  0.8997399810000000  0.0902699980000000  0.1799300010000000
  0.7664300200000000  0.0902699980000000  0.1799300010000000
  0.7297800180000000  0.1749899980000000  0.1799300010000000
  0.1664199980000000  0.5672199730000000  0.1799300010000000
  0.2697199880000000  0.5083199740000000  0.1799300010000000
  0.2330700010000000  0.4235999880000000  0.1799300010000000
  0.0997700020000000  0.4235999880000000  0.1799300010000000
  0.0631200000000000  0.5083199740000000  0.1799300010000000
  0.4997499880000000  0.5672199730000000  0.1799300010000000
  0.6030499940000000  0.5083199740000000  0.1799300010000000
  0.5663999920000000  0.4235999880000000  0.1799300010000000
  0.4330999850000000  0.4235999880000000  0.1799300010000000
  0.3964500130000000  0.5083199740000000  0.1799300010000000
  0.8330900069999999  0.5672199730000000  0.1799300010000000
  0.9363899830000000  0.5083199740000000  0.1799300010000000
  0.8997399810000000  0.4235999880000000  0.1799300010000000
  0.7664300200000000  0.4235999880000000  0.1799300010000000
  0.7297800180000000  0.5083199740000000  0.1799300010000000
  0.1664199980000000  0.9005600210000000  0.1799300010000000
  0.2697199880000000  0.8416500090000000  0.1799300010000000
  0.2330700010000000  0.7569400069999999  0.1799300010000000
  0.0997700020000000  0.7569400069999999  0.1799300010000000
  0.0631200000000000  0.8416500090000000  0.1799300010000000
  0.4997499880000000  0.9005600210000000  0.1799300010000000
  0.6030499940000000  0.8416500090000000  0.1799300010000000
  0.5663999920000000  0.7569400069999999  0.1799300010000000
  0.4330999850000000  0.7569400069999999  0.1799300010000000
  0.3964500130000000  0.8416500090000000  0.1799300010000000
  0.8330900069999999  0.9005600210000000  0.1799300010000000
  0.9363899830000000  0.8416500090000000  0.1799300010000000
  0.8997399810000000  0.7569400069999999  0.1799300010000000
  0.7664300200000000  0.7569400069999999  0.1799300010000000
  0.7297800180000000  0.8416500090000000  0.1799300010000000
  0.1664199980000000  0.2338899970000000  0.3354099990000000
  0.2697199880000000  0.1749899980000000  0.3354099990000000
  0.2330700010000000  0.0902699980000000  0.3354099990000000
  0.0997700020000000  0.0902699980000000  0.3354099990000000
  0.0631200000000000  0.1749899980000000  0.3354099990000000
  0.4997499880000000  0.2338899970000000  0.3354099990000000
  0.6030499940000000  0.1749899980000000  0.3354099990000000
  0.5663999920000000  0.0902699980000000  0.3354099990000000
  0.4330999850000000  0.0902699980000000  0.3354099990000000
  0.3964500130000000  0.1749899980000000  0.3354099990000000
  0.8330900069999999  0.2338899970000000  0.3354099990000000
  0.9363899830000000  0.1749899980000000  0.3354099990000000
  0.8997399810000000  0.0902699980000000  0.3354099990000000
  0.7664300200000000  0.0902699980000000  0.3354099990000000
  0.7297800180000000  0.1749899980000000  0.3354099990000000
  0.1664199980000000  0.5672199730000000  0.3354099990000000
  0.2697199880000000  0.5083199740000000  0.3354099990000000
  0.2330700010000000  0.4235999880000000  0.3354099990000000
  0.0997700020000000  0.4235999880000000  0.3354099990000000
  0.0631200000000000  0.5083199740000000  0.3354099990000000
  0.4997499880000000  0.5672199730000000  0.3354099990000000
  0.6030499940000000  0.5083199740000000  0.3354099990000000
  0.5663999920000000  0.4235999880000000  0.3354099990000000
  0.4330999850000000  0.4235999880000000  0.3354099990000000
  0.3964500130000000  0.5083199740000000  0.3354099990000000
  0.8330900069999999  0.5672199730000000  0.3354099990000000
  0.9363899830000000  0.5083199740000000  0.3354099990000000
  0.8997399810000000  0.4235999880000000  0.3354099990000000
  0.7664300200000000  0.4235999880000000  0.3354099990000000
  0.7297800180000000  0.5083199740000000  0.3354099990000000
  0.1664199980000000  0.9005600210000000  0.3354099990000000
  0.2697199880000000  0.8416500090000000  0.3354099990000000
  0.2330700010000000  0.7569400069999999  0.3354099990000000
  0.0997700020000000  0.7569400069999999  0.3354099990000000
  0.0631200000000000  0.8416500090000000  0.3354099990000000
  0.4997499880000000  0.9005600210000000  0.3354099990000000
  0.6030499940000000  0.8416500090000000  0.3354099990000000
  0.5663999920000000  0.7569400069999999  0.3354099990000000
  0.4330999850000000  0.7569400069999999  0.3354099990000000
  0.3964500130000000  0.8416500090000000  0.3354099990000000
  0.8330900069999999  0.9005600210000000  0.3354099990000000
  0.9363899830000000  0.8416500090000000  0.3354099990000000
  0.8997399810000000  0.7569400069999999  0.3354099990000000
  0.7664300200000000  0.7569400069999999  0.3354099990000000
  0.7297800180000000  0.8416500090000000  0.3354099990000000
  0.9997500180000000  0.3173500000000000  0.4131500120000001
  0.3330900070000000  0.3173500000000000  0.4131500120000001
  0.6664199830000000  0.3173500000000000  0.4131500120000001
  0.9997500180000000  0.6506900190000000  0.4131500120000001
  0.3330900070000000  0.6506900190000000  0.4131500120000001
  0.6664199830000000  0.6506900190000000  0.4131500120000001
  0.9997500180000000  0.9840199950000000  0.4131500120000001
  0.3330900070000000  0.9840199950000000  0.4131500120000001
  0.6664199830000000  0.9840199950000000  0.4131500120000001
  0.9997500180000000  0.3173500000000000  0.2576699850000000
  0.3330900070000000  0.3173500000000000  0.2576699850000000
  0.6664199830000000  0.3173500000000000  0.2576699850000000
  0.9997500180000000  0.6506900190000000  0.2576699850000000
  0.3330900070000000  0.6506900190000000  0.2576699850000000
  0.6664199830000000  0.6506900190000000  0.2576699850000000
  0.9997500180000000  0.9840199950000000  0.2576699850000000
  0.3330900070000000  0.9840199950000000  0.2576699850000000
  0.6664199830000000  0.9840199950000000  0.2576699850000000
  0.1664199980000000  0.3199000060000000  0.4131500120000001
  0.9997500180000000  0.1499000040000000  0.4131500120000001
  0.4997499880000000  0.3199000060000000  0.4131500120000001
  0.3330900070000000  0.1499000040000000  0.4131500120000001
  0.8330900069999999  0.3199000060000000  0.4131500120000001
  0.6664199830000000  0.1499000040000000  0.4131500120000001
  0.1664199980000000  0.6532300110000000  0.4131500120000001
  0.9997500180000000  0.4832400080000000  0.4131500120000001
  0.4997499880000000  0.6532300110000000  0.4131500120000001
  0.3330900070000000  0.4832400080000000  0.4131500120000001
  0.8330900069999999  0.6532300110000000  0.4131500120000001
  0.6664199830000000  0.4832400080000000  0.4131500120000001
  0.1664199980000000  0.9865700010000000  0.4131500120000001
  0.9997500180000000  0.8165699840000000  0.4131500120000001
  0.4997499880000000  0.9865700010000000  0.4131500120000001
  0.3330900070000000  0.8165699840000000  0.4131500120000001
  0.8330900069999999  0.9865700010000000  0.4131500120000001
  0.6664199830000000  0.8165699840000000  0.4131500120000001
  0.9997500180000000  0.3098599910000000  0.1799300010000000
  0.3330900070000000  0.3098599910000000  0.1799300010000000
  0.6664199830000000  0.3098599910000000  0.1799300010000000
  0.9997500180000000  0.6431900260000000  0.1799300010000000
  0.3330900070000000  0.6431900260000000  0.1799300010000000
  0.6664199830000000  0.6431900260000000  0.1799300010000000
  0.9997500180000000  0.9765200020000000  0.1799300010000000
  0.3330900070000000  0.9765200020000000  0.1799300010000000
  0.6664199830000000  0.9765200020000000  0.1799300010000000
  0.1664199980000000  0.3199000060000000  0.2576699850000000
  0.9997500180000000  0.1499000040000000  0.2576699850000000
  0.9997500180000000  0.3098599910000000  0.3354099990000000
  0.4997499880000000  0.3199000060000000  0.2576699850000000
  0.3330900070000000  0.1499000040000000  0.2576699850000000
  0.3330900070000000  0.3098599910000000  0.3354099990000000
  0.8330900069999999  0.3199000060000000  0.2576699850000000
  0.6664199830000000  0.1499000040000000  0.2576699850000000
  0.6664199830000000  0.3098599910000000  0.3354099990000000
  0.1664199980000000  0.6532300110000000  0.2576699850000000
  0.9997500180000000  0.4832400080000000  0.2576699850000000
  0.9997500180000000  0.6431900260000000  0.3354099990000000
  0.4997499880000000  0.6532300110000000  0.2576699850000000
  0.3330900070000000  0.4832400080000000  0.2576699850000000
  0.3330900070000000  0.6431900260000000  0.3354099990000000
  0.8330900069999999  0.6532300110000000  0.2576699850000000
  0.6664199830000000  0.4832400080000000  0.2576699850000000
  0.6664199830000000  0.6431900260000000  0.3354099990000000
  0.1664199980000000  0.9865700010000000  0.2576699850000000
  0.9997500180000000  0.8165699840000000  0.2576699850000000
  0.9997500180000000  0.9765200020000000  0.3354099990000000
  0.4997499880000000  0.9865700010000000  0.2576699850000000
  0.3330900070000000  0.8165699840000000  0.2576699850000000
  0.3330900070000000  0.9765200020000000  0.3354099990000000
  0.8330900069999999  0.9865700010000000  0.2576699850000000
  0.6664199830000000  0.8165699840000000  0.2576699850000000
  0.6664199830000000  0.9765200020000000  0.3354099990000000
