FAPbI3 (001) 3x3 slab, Pb-I terminated
1.0
       19.3624000549         0.0000000000         0.0000000000
        0.0000000000        18.8243999481         0.0000000000
        0.0000000000         0.0000000000        40.8961982727
    C    N    H   Pb    I
   27   54  135   27   81
Direct
     0.166419998         0.175870001         0.024450000
     0.499749988         0.175870001         0.024450000
     0.833090007         0.175870001         0.024450000
     0.166419998         0.509209991         0.024450000
     0.499749988         0.509209991         0.024450000
     0.833090007         0.509209991         0.024450000
     0.166419998         0.842540026         0.024450000
     0.499749988         0.842540026         0.024450000
     0.833090007         0.842540026         0.024450000
     0.166419998         0.175870001         0.179930001
     0.499749988         0.175870001         0.179930001
     0.833090007         0.175870001         0.179930001
     0.166419998         0.509209991         0.179930001
     0.499749988         0.509209991         0.179930001
     0.833090007         0.509209991         0.179930001
     0.166419998         0.842540026         0.179930001
     0.499749988         0.842540026         0.179930001
     0.833090007         0.842540026         0.179930001
     0.166419998         0.175870001         0.335409999
     0.499749988         0.175870001         0.335409999
     0.833090007         0.175870001         0.335409999
     0.166419998         0.509209991         0.335409999
     0.499749988         0.509209991         0.335409999
     0.833090007         0.509209991         0.335409999
     0.166419998         0.842540026         0.335409999
     0.499749988         0.842540026         0.335409999
     0.833090007         0.842540026         0.335409999
     0.226620004         0.144050002         0.024450000
     0.106219999         0.144050002         0.024450000
     0.559949994         0.144050002         0.024450000
     0.439550012         0.144050002         0.024450000
     0.893289983         0.144050002         0.024450000
     0.772889972         0.144050002         0.024450000
     0.226620004         0.477389991         0.024450000
     0.106219999         0.477389991         0.024450000
     0.559949994         0.477389991         0.024450000
     0.439550012         0.477389991         0.024450000
     0.893289983         0.477389991         0.024450000
     0.772889972         0.477389991         0.024450000
     0.226620004         0.810720026         0.024450000
     0.106219999         0.810720026         0.024450000
     0.559949994         0.810720026         0.024450000
     0.439550012         0.810720026         0.024450000
     0.893289983         0.810720026         0.024450000
     0.772889972         0.810720026         0.024450000
     0.226620004         0.144050002         0.179930001
     0.106219999         0.144050002         0.179930001
     0.559949994         0.144050002         0.179930001
     0.439550012         0.144050002         0.179930001
     0.893289983         0.144050002         0.179930001
     0.772889972         0.144050002         0.179930001
     0.226620004         0.477389991         0.179930001
     0.106219999         0.477389991         0.179930001
     0.559949994         0.477389991         0.179930001
     0.439550012         0.477389991         0.179930001
     0.893289983         0.477389991         0.179930001
     0.772889972         0.477389991         0.179930001
     0.226620004         0.810720026         0.179930001
     0.106219999         0.810720026         0.179930001
     0.559949994         0.810720026         0.179930001
     0.439550012         0.810720026         0.179930001
     0.893289983         0.810720026         0.179930001
     0.772889972         0.810720026         0.179930001
     0.226620004         0.144050002         0.335409999
     0.106219999         0.144050002         0.335409999
     0.559949994         0.144050002         0.335409999
     0.439550012         0.144050002         0.335409999
     0.893289983         0.144050002         0.335409999
     0.772889972         0.144050002         0.335409999
     0.226620004         0.477389991         0.335409999
     0.106219999         0.477389991         0.335409999
     0.559949994         0.477389991         0.335409999
     0.439550012         0.477389991         0.335409999
     0.893289983         0.477389991         0.335409999
     0.772889972         0.477389991         0.335409999
     0.226620004         0.810720026         0.335409999
     0.106219999         0.810720026         0.335409999
     0.559949994         0.810720026         0.335409999
     0.439550012         0.810720026         0.335409999
     0.893289983         0.810720026         0.335409999
     0.772889972         0.810720026         0.335409999
     0.166419998         0.233889997         0.024450000
     0.269719988         0.174989998         0.024450000
     0.233070001         0.090269998         0.024450000
     0.099770002         0.090269998         0.024450000
     0.063120000         0.174989998         0.024450000
     0.499749988         0.233889997         0.024450000
     0.603049994         0.174989998         0.024450000
     0.566399992         0.090269998         0.024450000
     0.433099985         0.090269998         0.024450000
     0.396450013         0.174989998         0.024450000
     0.833090007         0.233889997         0.024450000
     0.936389983         0.174989998         0.024450000
     0.899739981         0.090269998         0.024450000
     0.766430020         0.090269998         0.024450000
     0.729780018         0.174989998         0.024450000
     0.166419998         0.567219973         0.024450000
     0.269719988         0.508319974         0.024450000
     0.233070001         0.423599988         0.024450000
     0.099770002         0.423599988         0.024450000
     0.063120000         0.508319974         0.024450000
     0.499749988         0.567219973         0.024450000
     0.603049994         0.508319974         0.024450000
     0.566399992         0.423599988         0.024450000
     0.433099985         0.423599988         0.024450000
     0.396450013         0.508319974         0.024450000
     0.833090007         0.567219973         0.024450000
     0.936389983         0.508319974         0.024450000
     0.899739981         0.423599988         0.024450000
     0.766430020         0.423599988         0.024450000
     0.729780018         0.508319974         0.024450000
     0.166419998         0.900560021         0.024450000
     0.269719988         0.841650009         0.024450000
     0.233070001         0.756940007         0.024450000
     0.099770002         0.756940007         0.024450000
     0.063120000         0.841650009         0.024450000
     0.499749988         0.900560021         0.024450000
     0.603049994         0.841650009         0.024450000
     0.566399992         0.756940007         0.024450000
     0.433099985         0.756940007         0.024450000
     0.396450013         0.841650009         0.024450000
     0.833090007         0.900560021         0.024450000
     0.936389983         0.841650009         0.024450000
     0.899739981         0.756940007         0.024450000
     0.766430020         0.756940007         0.024450000
     0.729780018         0.841650009         0.024450000
     0.166419998         0.233889997         0.179930001
     0.269719988         0.174989998         0.179930001
     0.233070001         0.090269998         0.179930001
     0.099770002         0.090269998         0.179930001
     0.063120000         0.174989998         0.179930001
     0.499749988         0.233889997         0.179930001
     0.603049994         0.174989998         0.179930001
     0.566399992         0.090269998         0.179930001
     0.433099985         0.090269998         0.179930001
     0.396450013         0.174989998         0.179930001
     0.833090007         0.233889997         0.179930001
     0.936389983         0.174989998         0.179930001
     0.899739981         0.090269998         0.179930001
     0.766430020         0.090269998         0.179930001
     0.729780018         0.174989998         0.179930001
     0.166419998         0.567219973         0.179930001
     0.269719988         0.508319974         0.179930001
     0.233070001         0.423599988         0.179930001
     0.099770002         0.423599988         0.179930001
     0.063120000         0.508319974         0.179930001
     0.499749988         0.567219973         0.179930001
     0.603049994         0.508319974         0.179930001
     0.566399992         0.423599988         0.179930001
     0.433099985         0.423599988         0.179930001
     0.396450013         0.508319974         0.179930001
     0.833090007         0.567219973         0.179930001
     0.936389983         0.508319974         0.179930001
     0.899739981         0.423599988         0.179930001
     0.766430020         0.423599988         0.179930001
     0.729780018         0.508319974         0.179930001
     0.166419998         0.900560021         0.179930001
     0.269719988         0.841650009         0.179930001
     0.233070001         0.756940007         0.179930001
     0.099770002         0.756940007         0.179930001
     0.063120000         0.841650009         0.179930001
     0.499749988         0.900560021         0.179930001
     0.603049994         0.841650009         0.179930001
     0.566399992         0.756940007         0.179930001
     0.433099985         0.756940007         0.179930001
     0.396450013         0.841650009         0.179930001
     0.833090007         0.900560021         0.179930001
     0.936389983         0.841650009         0.179930001
     0.899739981         0.756940007         0.179930001
     0.766430020         0.756940007         0.179930001
     0.729780018         0.841650009         0.179930001
     0.166419998         0.233889997         0.335409999
     0.269719988         0.174989998         0.335409999
     0.233070001         0.090269998         0.335409999
     0.099770002         0.090269998         0.335409999
     0.063120000         0.174989998         0.335409999
     0.499749988         0.233889997         0.335409999
     0.603049994         0.174989998         0.335409999
     0.566399992         0.090269998         0.335409999
     0.433099985         0.090269998         0.335409999
     0.396450013         0.174989998         0.335409999
     0.833090007         0.233889997         0.335409999
     0.936389983         0.174989998         0.335409999
     0.899739981         0.090269998         0.335409999
     0.766430020         0.090269998         0.335409999
     0.729780018         0.174989998         0.335409999
     0.166419998         0.567219973         0.335409999
     0.269719988         0.508319974         0.335409999
     0.233070001         0.423599988         0.335409999
     0.099770002         0.423599988         0.335409999
     0.063120000         0.508319974         0.335409999
     0.499749988         0.567219973         0.335409999
     0.603049994         0.508319974         0.335409999
     0.566399992         0.423599988         0.335409999
     0.433099985         0.423599988         0.335409999
     0.396450013         0.508319974         0.335409999
     0.833090007         0.567219973         0.335409999
     0.936389983         0.508319974         0.335409999
     0.899739981         0.423599988         0.335409999
     0.766430020         0.423599988         0.335409999
     0.729780018         0.508319974         0.335409999
     0.166419998         0.900560021         0.335409999
     0.269719988         0.841650009         0.335409999
     0.233070001         0.756940007         0.335409999
     0.099770002         0.756940007         0.335409999
     0.063120000         0.841650009         0.335409999
     0.499749988         0.900560021         0.335409999
     0.603049994         0.841650009         0.335409999
     0.566399992         0.756940007         0.335409999
     0.433099985         0.756940007         0.335409999
     0.396450013         0.841650009         0.335409999
     0.833090007         0.900560021         0.335409999
     0.936389983         0.841650009         0.335409999
     0.899739981         0.756940007         0.335409999
     0.766430020         0.756940007         0.335409999
     0.729780018         0.841650009         0.335409999
     0.999750018         0.317350000         0.413150012
     0.333090007         0.317350000         0.413150012
     0.666419983         0.317350000         0.413150012
     0.999750018         0.650690019         0.413150012
     0.333090007         0.650690019         0.413150012
     0.666419983         0.650690019         0.413150012
     0.999750018         0.984019995         0.413150012
     0.333090007         0.984019995         0.413150012
     0.666419983         0.984019995         0.413150012
     0.999750018         0.317350000         0.102190003
     0.333090007         0.317350000         0.102190003
     0.666419983         0.317350000         0.102190003
     0.999750018         0.650690019         0.102190003
     0.333090007         0.650690019         0.102190003
     0.666419983         0.650690019         0.102190003
     0.999750018         0.984019995         0.102190003
     0.333090007         0.984019995         0.102190003
     0.666419983         0.984019995         0.102190003
     0.999750018         0.317350000         0.257669985
     0.333090007         0.317350000         0.257669985
     0.666419983         0.317350000         0.257669985
     0.999750018         0.650690019         0.257669985
     0.333090007         0.650690019         0.257669985
     0.666419983         0.650690019         0.257669985
     0.999750018         0.984019995         0.257669985
     0.333090007         0.984019995         0.257669985
     0.666419983         0.984019995         0.257669985
     0.166419998         0.319900006         0.413150012
     0.999750018         0.149900004         0.413150012
     0.999750018         0.309859991         0.024450000
     0.499749988         0.319900006         0.413150012
     0.333090007         0.149900004         0.413150012
     0.333090007         0.309859991         0.024450000
     0.833090007         0.319900006         0.413150012
     0.666419983         0.149900004         0.413150012
     0.666419983         0.309859991         0.024450000
     0.166419998         0.653230011         0.413150012
     0.999750018         0.483240008         0.413150012
     0.999750018         0.643190026         0.024450000
     0.499749988         0.653230011         0.413150012
     0.333090007         0.483240008         0.413150012
     0.333090007         0.643190026         0.024450000
     0.833090007         0.653230011         0.413150012
     0.666419983         0.483240008         0.413150012
     0.666419983         0.643190026         0.024450000
     0.166419998         0.986570001         0.413150012
     0.999750018         0.816569984         0.413150012
     0.999750018         0.976520002         0.024450000
     0.499749988         0.986570001         0.413150012
     0.333090007         0.816569984         0.413150012
     0.333090007         0.976520002         0.024450000
     0.833090007         0.986570001         0.413150012
     0.666419983         0.816569984         0.413150012
     0.666419983         0.976520002         0.024450000
     0.166419998         0.319900006         0.102190003
     0.999750018         0.149900004         0.102190003
     0.999750018         0.309859991         0.179930001
     0.499749988         0.319900006         0.102190003
     0.333090007         0.149900004         0.102190003
     0.333090007         0.309859991         0.179930001
     0.833090007         0.319900006         0.102190003
     0.666419983         0.149900004         0.102190003
     0.666419983         0.309859991         0.179930001
     0.166419998         0.653230011         0.102190003
     0.999750018         0.483240008         0.102190003
     0.999750018         0.643190026         0.179930001
     0.499749988         0.653230011         0.102190003
     0.333090007         0.483240008         0.102190003
     0.333090007         0.643190026         0.179930001
     0.833090007         0.653230011         0.102190003
     0.666419983         0.483240008         0.102190003
     0.666419983         0.643190026         0.179930001
     0.166419998         0.986570001         0.102190003
     0.999750018         0.816569984         0.102190003
     0.999750018         0.976520002         0.179930001
     0.499749988         0.986570001         0.102190003
     0.333090007         0.816569984         0.102190003
     0.333090007         0.976520002         0.179930001
     0.833090007         0.986570001         0.102190003
     0.666419983         0.816569984         0.102190003
     0.666419983         0.976520002         0.179930001
     0.166419998         0.319900006         0.257669985
     0.999750018         0.149900004         0.257669985
     0.999750018         0.309859991         0.335409999
     0.499749988         0.319900006         0.257669985
     0.333090007         0.149900004         0.257669985
     0.333090007         0.309859991         0.335409999
     0.833090007         0.319900006         0.257669985
     0.666419983         0.149900004         0.257669985
     0.666419983         0.309859991         0.335409999
     0.166419998         0.653230011         0.257669985
     0.999750018         0.483240008         0.257669985
     0.999750018         0.643190026         0.335409999
     0.499749988         0.653230011         0.257669985
     0.333090007         0.483240008         0.257669985
     0.333090007         0.643190026         0.335409999
     0.833090007         0.653230011         0.257669985
     0.666419983         0.483240008         0.257669985
     0.666419983         0.643190026         0.335409999
     0.166419998         0.986570001         0.257669985
     0.999750018         0.816569984         0.257669985
     0.999750018         0.976520002         0.335409999
     0.499749988         0.986570001         0.257669985
     0.333090007         0.816569984         0.257669985
     0.333090007         0.976520002         0.335409999
     0.833090007         0.986570001         0.257669985
     0.666419983         0.816569984         0.257669985
     0.666419983         0.976520002         0.335409999
